experiments/cvc4_benchmarks/expl/sg_clam/goal-sg16.smt2.log
11:22:55 [WARN] Collecting statistics
11:22:55 [WARN]  ex is: zero
11:22:55 [WARN]  ex is: (succ zero)
11:22:55 [WARN]  ex is: (succ (succ zero))
11:22:55 [WARN] Proof mode: false
11:22:55 [WARN]  ex is: zero
11:22:55 [WARN]  ex is: (succ zero)
11:22:55 [WARN]  ex is: (succ (succ zero))
11:22:55 [WARN] Proof mode: false
11:22:55 [WARN] proved: (plus ?ts_ph_Nat_0 zero) => ?ts_ph_Nat_0
11:22:55 [WARN] proved: (plus ?ts_ph_Nat_1 ?ts_ph_Nat_0) => (plus ?ts_ph_Nat_0 ?ts_ph_Nat_1)
11:22:55 [WARN] proved: (plus ?ts_ph_Nat_0 ?ts_ph_Nat_1) => (plus ?ts_ph_Nat_1 ?ts_ph_Nat_0)
11:22:55 [WARN] proved: (leq zero ?ts_ph_Nat_0) => true
11:22:57 [WARN] proved: (even (plus ?ts_ph_Nat_0 ?ts_ph_Nat_0)) => true
11:22:57 [WARN] proved: (leq (succ zero) (succ ?ts_ph_Nat_0)) => true
11:22:57 [WARN] generalized case_split proof as: (plus (plus ?ts_ph_Nat_1 ?ts_ph_Nat_2) (plus ?ts_ph_Nat_0 ?ts_ph_Nat_0)) -- (plus (plus ?ts_ph_Nat_0 ?ts_ph_Nat_1) (plus ?ts_ph_Nat_0 ?ts_ph_Nat_2))
11:22:57 [WARN] proved: (plus (plus ?ts_ph_Nat_1 ?ts_ph_Nat_2) (plus ?ts_ph_Nat_0 ?ts_ph_Nat_0)) => (plus (plus ?ts_ph_Nat_0 ?ts_ph_Nat_1) (plus ?ts_ph_Nat_0 ?ts_ph_Nat_2))
11:22:57 [WARN] proved: (plus (plus ?ts_ph_Nat_0 ?ts_ph_Nat_1) (plus ?ts_ph_Nat_0 ?ts_ph_Nat_2)) => (plus (plus ?ts_ph_Nat_1 ?ts_ph_Nat_2) (plus ?ts_ph_Nat_0 ?ts_ph_Nat_0))
11:22:57 [WARN] proved: (leq (succ zero) ?ts_ph_Nat_0) => (leq (succ zero) (plus ?ts_ph_Nat_0 ?ts_ph_Nat_0))
11:22:57 [WARN] proved: (leq (succ zero) (plus ?ts_ph_Nat_0 ?ts_ph_Nat_0)) => (leq (succ zero) ?ts_ph_Nat_0)
